c parity = 0 0 0 0 1 1 1 1 0 1 1 0 0 0 0 0 1 1 0 0 
c e = 0.25 
p cnf 20 40
x 2 5 6 7 8 9 10 13 14 16 17 0
x 2 5 7 10 13 16 17 18 19 0
x -2 3 4 5 6 8 9 10 11 14 15 20 0
x -1 5 7 8 9 11 12 14 16 19 0
x -1 2 3 4 6 13 14 15 16 18 20 0
x 2 5 7 8 9 13 17 18 19 0
x -2 4 6 9 10 12 13 16 17 18 20 0
x 3 4 6 7 10 13 15 17 18 19 20 0
x 2 3 6 9 11 12 13 16 17 19 0
x 2 3 4 9 10 11 13 14 16 17 18 0
x 2 3 6 8 9 10 12 14 15 16 19 0
x 1 3 4 6 7 8 9 12 13 16 0
x 1 2 3 4 5 8 10 11 12 18 0
x -1 2 3 4 10 12 13 15 16 18 20 0
x -1 2 4 5 14 16 17 18 20 0
x 1 2 3 6 8 9 10 12 14 15 19 0
x -1 3 6 7 9 11 12 13 15 16 0
x 1 3 4 6 8 9 10 11 17 19 0
x -3 5 10 11 12 13 14 17 19 0
x -1 3 4 5 9 11 12 15 17 18 19 0
x -1 2 5 7 10 11 12 15 18 19 20 0
x -4 6 7 8 11 16 18 19 20 0
x -2 3 5 8 13 14 15 16 19 20 0
x -1 2 5 6 8 15 16 17 20 0
x 1 3 4 5 6 7 11 14 15 18 19 20 0
x -1 2 4 5 7 10 11 13 17 18 20 0
x -1 2 3 5 8 9 13 15 16 19 0
x 1 4 5 12 13 14 16 17 18 20 0
x 2 3 4 6 7 9 11 12 15 16 20 0
x 1 2 3 5 6 10 12 13 16 19 20 0
x -2 3 5 6 7 9 10 17 18 19 0
x 2 3 4 5 7 8 9 10 12 14 16 17 0
x -2 4 6 8 13 14 15 16 17 18 20 0
x -2 3 4 6 10 11 12 14 16 18 0
x 1 2 3 7 8 14 15 17 19 20 0
x 4 10 11 12 13 15 16 17 18 20 0
x -1 2 6 7 9 12 14 17 18 19 0
x 1 4 5 7 11 13 15 16 17 18 20 0
x -3 4 5 7 8 10 12 13 15 20 0
x 4 8 9 11 14 16 17 18 19 20 0
